h 1 2 0
h -3 -4 -5 0
h -6 7 8 0
h 9 10 -11 0
h 12 13 0
h 4 6 0
h -6 -7 0
h -14 -11 0
h 10 -1 -4 0
h 15 0
h 16 0
h 17 -18 0
h -19 -20 0
h -20 3 0
h -12 -20 0
h 21 22 0
1 -22 0
h 19 20 0
h -8 20 0
h 3 20 0
h 20 14 0
h -11 20 0
h -7 -14 23 0
h 24 0
h 25 0
h 26 -13 0
h 27 0
h -9 20 0
h -9 12 0
h 28 0
h 29 -19 0
h 30 0
h -10 31 0
h 10 32 -21 0
h 33 0
h -10 13 0
h -13 10 0
h -13 7 14 0
h -7 34 0
h 35 4 -3 0
h 9 -2 0
h 36 -11 14 0
h 11 -14 0
1 -36 0
h 37 11 -14 0
h -7 38 0
h 39 -5 0
h 40 -7 0
1 -40 0
h 41 -18 0
h -20 -8 0
h 20 2 0
h 42 -19 10 0
h 43 3 -4 0
h -10 19 44 0
h 1 45 0
h 11 46 9 -3 0
1 -46 0
h 12 10 47 0
1 -47 0
h 48 0
h 49 14 -7 0
1 -49 0
h -6 21 0
h -21 6 0
h 50 4 -21 0
